
  26    0


   0  14 2 3 4 5 9 17 18 19 20 21 22 23 24 25 
   7   6 16 15 14 10 8 6 
   6   5 15 13 12 11 7 
   4   2 10 6 
   3   2 14 7 
   2   2 13 12 
   3   1 10 
   5   1 11 
   6   1 11 
   9   1 26
   9   1 26
   5   1 26
   4   1 26
   7   1 26
   3   1 26
  10   1 26
   8   1 26
   5   1 26
   5   1 26
   2   1 26
  10   1 26
   5   1 26
   7   1 26
   5   1 26
   3   1 26
   0   0 
